c colouring generated by benchmark framework
p edge 300 21695
v 1 25
v 2 10
v 3 27
v 4 9
v 5 51
v 6 34
v 7 14
v 8 26
v 9 0
v 10 26
v 11 9
v 12 22
v 13 39
v 14 21
v 15 5
v 16 49
v 17 4
v 18 7
v 19 35
v 20 4
v 21 9
v 22 20
v 23 12
v 24 19
v 25 33
v 26 8
v 27 23
v 28 38
v 29 14
v 30 14
v 31 25
v 32 34
v 33 30
v 34 11
v 35 11
v 36 27
v 37 38
v 38 24
v 39 17
v 40 41
v 41 19
v 42 13
v 43 11
v 44 43
v 45 31
v 46 45
v 47 38
v 48 11
v 49 49
v 50 10
v 51 23
v 52 1
v 53 11
v 54 13
v 55 43
v 56 12
v 57 24
v 58 28
v 59 47
v 60 0
v 61 37
v 62 32
v 63 30
v 64 4
v 65 9
v 66 51
v 67 20
v 68 48
v 69 8
v 70 46
v 71 35
v 72 43
v 73 33
v 74 35
v 75 2
v 76 47
v 77 18
v 78 1
v 79 35
v 80 17
v 81 13
v 82 44
v 83 40
v 84 16
v 85 48
v 86 15
v 87 16
v 88 25
v 89 5
v 90 21
v 91 11
v 92 16
v 93 26
v 94 25
v 95 40
v 96 2
v 97 15
v 98 44
v 99 6
v 100 49
v 101 22
v 102 21
v 103 33
v 104 18
v 105 36
v 106 34
v 107 6
v 108 19
v 109 28
v 110 52
v 111 37
v 112 25
v 113 4
v 114 41
v 115 2
v 116 18
v 117 44
v 118 37
v 119 24
v 120 4
v 121 28
v 122 7
v 123 8
v 124 10
v 125 43
v 126 20
v 127 29
v 128 8
v 129 36
v 130 25
v 131 22
v 132 23
v 133 15
v 134 19
v 135 17
v 136 29
v 137 1
v 138 10
v 139 12
v 140 42
v 141 16
v 142 42
v 143 18
v 144 20
v 145 45
v 146 1
v 147 7
v 148 23
v 149 41
v 150 3
v 151 11
v 152 23
v 153 52
v 154 26
v 155 5
v 156 50
v 157 3
v 158 25
v 159 9
v 160 14
v 161 7
v 162 18
v 163 22
v 164 52
v 165 15
v 166 27
v 167 32
v 168 16
v 169 21
v 170 30
v 171 39
v 172 29
v 173 31
v 174 28
v 175 6
v 176 6
v 177 6
v 178 46
v 179 52
v 180 19
v 181 44
v 182 19
v 183 1
v 184 5
v 185 31
v 186 8
v 187 15
v 188 39
v 189 13
v 190 51
v 191 7
v 192 27
v 193 32
v 194 48
v 195 0
v 196 40
v 197 30
v 198 13
v 199 2
v 200 10
v 201 9
v 202 40
v 203 2
v 204 15
v 205 8
v 206 50
v 207 7
v 208 33
v 209 3
v 210 7
v 211 34
v 212 17
v 213 31
v 214 18
v 215 39
v 216 36
v 217 37
v 218 15
v 219 14
v 220 13
v 221 48
v 222 32
v 223 4
v 224 12
v 225 28
v 226 29
v 227 30
v 228 30
v 229 38
v 230 24
v 231 29
v 232 15
v 233 16
v 234 26
v 235 6
v 236 13
v 237 23
v 238 1
v 239 45
v 240 12
v 241 0
v 242 32
v 243 27
v 244 42
v 245 35
v 246 6
v 247 28
v 248 36
v 249 32
v 250 12
v 251 42
v 252 26
v 253 3
v 254 13
v 255 14
v 256 9
v 257 1
v 258 20
v 259 21
v 260 30
v 261 5
v 262 21
v 263 3
v 264 17
v 265 33
v 266 14
v 267 21
v 268 29
v 269 35
v 270 31
v 271 35
v 272 23
v 273 45
v 274 43
v 275 2
v 276 7
v 277 3
v 278 9
v 279 46
v 280 26
v 281 40
v 282 0
v 283 36
v 284 3
v 285 28
v 286 31
v 287 34
v 288 12
v 289 42
v 290 51
v 291 22
v 292 27
v 293 10
v 294 0
v 295 2
v 296 5
v 297 24
v 298 41
v 299 40
v 300 46
